0 8 2 10 8 5 7 1 1 -1 
9 5 -1 7 2 9 1 1 2 -1 
10 8 3 9 -1 0 -1 -1 3 -1 
5 3 8 8 4 -1 9 9 0 -1 
8 2 3 9 6 7 2 6 6 -1 
1 -1 6 1 5 3 -1 10 9 -1 
2 8 0 5 3 0 1 4 1 -1 
0 5 -1 3 0 0 9 5 9 -1 
-1 -1 10 2 1 8 5 3 6 -1 
10 8 8 5 0 2 4 10 6 -1 
2 5 5 4 5 10 10 8 0 -1 
7 10 10 8 5 8 0 10 -1 -1 
3 0 9 4 8 9 0 -1 10 -1 
1 10 6 7 5 2 6 -1 10 -1 
-1 1 6 10 5 2 9 5 0 -1 
-1 9 1 8 9 6 4 3 5 -1 
8 9 5 9 2 4 0 -1 5 -1 
7 6 5 1 9 -1 8 8 2 -1 
1 7 5 3 9 8 -1 5 -1 -1 
6 10 5 8 -1 9 7 6 9 -1 
